3 15
351 272 337 
0 32 22 51 41 69 59 12 47 79 93 63 72 3
1 81 71 57 47 34 24 6 72 98 37 41 12 3
2 89 79 23 13 66 56 48 41 64 97 8 56 2
3 25 15 42 32 50 40 62 16 77 77 8 37 2
4 103 93 73 63 44 34 65 98 64 93 33 72 3
5 35 25 43 33 44 34 53 18 74 68 29 6 3
6 64 54 110 100 65 55 12 28 10 86 39 91 1
7 75 65 51 41 28 18 58 80 96 68 43 86 1
8 89 79 39 29 82 72 61 41 17 56 58 60 3
9 44 34 13 3 81 71 77 1 60 46 93 69 3
10 58 48 13 3 59 49 25 20 8 36 57 1 3
11 24 14 32 22 33 23 52 28 65 59 4 73 3
12 38 28 64 54 91 81 7 5 63 23 59 67 1
13 16 6 65 55 21 11 50 71 64 12 96 74 3
14 80 70 19 9 57 47 82 99 94 97 30 89 1
